7990004714806459156506,12,1,2,012,6,1,2,012,14,1,2,012,9,1,2,09,15,1,2,02,11,1,2,09,7,1,2,09,14,1,2,04,3,1,2,05,5,1,2,03,5,1,2,012,3,1,2,01,13,1,2,04,15,1,2,015,6,1,2,07,6,1,2,013,14,1,2,011,8,1,2,012,3,1,2,011,14,1,2,07,4,1,2,013,8,1,2,07,3,1,2,015,2,1,2,010,4,1,2,011,14,1,2,013,15,1,2,01,3,1,2,01,14,1,2,013,9,1,2,09,8,1,2,09,13,1,2,010,4,1,2,07,2,1,2,07,5,1,2,03,14,1,2,06,7,1,2,015,8,1,2,03,3,1,2,06,3,1,2,06,3,1,2,02,11,1,2,013,9,1,2,08,9,1,2,07,3,1,2,010,14,1,2,010,8,1,2,011,11,1,2,015,3,1,2,05,12,1,2,0